Optimal - objective value 4.71938925
      0 C0000000       4.9831861              -1.5508406
      1 C0000001               0               2.0795425
      2 C0000002       52.556734              0.23683962
      3 C0000003       3.5123793                       0
      4 C0000004        1.589531                       0
      0 X0000000      0.32309642                       0
      1 X0000001               0              0.26314523
      2 X0000002       9.8649997                       0
      3 X0000003       7.5689033                       0
      4 X0000004               0             0.018075388
